(set-logic LIA)
(declare-fun pos_x0 () Int)
(declare-fun pos_x1 () Int)
(declare-fun pos_x2 () Int)
(declare-fun pos_x3 () Int)
(declare-fun pos_x4 () Int)
(declare-fun pos_x5 () Int)
(declare-fun pos_x6 () Int)
(declare-fun pos_x7 () Int)
(declare-fun pos_x8 () Int)
(declare-fun pos_x9 () Int)
(declare-fun pos_x10 () Int)
(declare-fun pos_x11 () Int)
(declare-fun pos_y0 () Int)
(declare-fun pos_y1 () Int)
(declare-fun pos_y2 () Int)
(declare-fun pos_y3 () Int)
(declare-fun pos_y4 () Int)
(declare-fun pos_y5 () Int)
(declare-fun pos_y6 () Int)
(declare-fun pos_y7 () Int)
(declare-fun pos_y8 () Int)
(declare-fun pos_y9 () Int)
(declare-fun pos_y10 () Int)
(declare-fun pos_y11 () Int)
(declare-fun l () Int)
(assert (and (>= pos_x0 0) (<= pos_x0 14)))
(assert (and (>= pos_x1 0) (<= pos_x1 14)))
(assert (and (>= pos_x2 0) (<= pos_x2 14)))
(assert (and (>= pos_x3 0) (<= pos_x3 14)))
(assert (and (>= pos_x4 0) (<= pos_x4 14)))
(assert (and (>= pos_x5 0) (<= pos_x5 14)))
(assert (and (>= pos_x6 0) (<= pos_x6 14)))
(assert (and (>= pos_x7 0) (<= pos_x7 14)))
(assert (and (>= pos_x8 0) (<= pos_x8 14)))
(assert (and (>= pos_x9 0) (<= pos_x9 14)))
(assert (and (>= pos_x10 0) (<= pos_x10 14)))
(assert (and (>= pos_x11 0) (<= pos_x11 14)))
(assert (and (>= pos_y0 0) (<= pos_y0 73)))
(assert (and (>= pos_y1 0) (<= pos_y1 73)))
(assert (and (>= pos_y2 0) (<= pos_y2 73)))
(assert (and (>= pos_y3 0) (<= pos_y3 73)))
(assert (and (>= pos_y4 0) (<= pos_y4 73)))
(assert (and (>= pos_y5 0) (<= pos_y5 73)))
(assert (and (>= pos_y6 0) (<= pos_y6 73)))
(assert (and (>= pos_y7 0) (<= pos_y7 73)))
(assert (and (>= pos_y8 0) (<= pos_y8 73)))
(assert (and (>= pos_y9 0) (<= pos_y9 73)))
(assert (and (>= pos_y10 0) (<= pos_y10 73)))
(assert (and (>= pos_y11 0) (<= pos_y11 73)))
(assert (and (>= l 17) (<= l 76)))
(assert (or (<= (+ pos_x0 3) pos_x1) (<= (+ pos_y0 3) pos_y1) (>= (- pos_x0 3) pos_x1) (>= (- pos_y0 4) pos_y1)))
(assert (or (<= (+ pos_x0 3) pos_x2) (<= (+ pos_y0 3) pos_y2) (>= (- pos_x0 3) pos_x2) (>= (- pos_y0 5) pos_y2)))
(assert (or (<= (+ pos_x0 3) pos_x3) (<= (+ pos_y0 3) pos_y3) (>= (- pos_x0 3) pos_x3) (>= (- pos_y0 6) pos_y3)))
(assert (or (<= (+ pos_x0 3) pos_x4) (<= (+ pos_y0 3) pos_y4) (>= (- pos_x0 3) pos_x4) (>= (- pos_y0 7) pos_y4)))
(assert (or (<= (+ pos_x0 3) pos_x5) (<= (+ pos_y0 3) pos_y5) (>= (- pos_x0 3) pos_x5) (>= (- pos_y0 8) pos_y5)))
(assert (or (<= (+ pos_x0 3) pos_x6) (<= (+ pos_y0 3) pos_y6) (>= (- pos_x0 3) pos_x6) (>= (- pos_y0 9) pos_y6)))
(assert (or (<= (+ pos_x0 3) pos_x7) (<= (+ pos_y0 3) pos_y7) (>= (- pos_x0 4) pos_x7) (>= (- pos_y0 3) pos_y7)))
(assert (or (<= (+ pos_x0 3) pos_x8) (<= (+ pos_y0 3) pos_y8) (>= (- pos_x0 4) pos_x8) (>= (- pos_y0 8) pos_y8)))
(assert (or (<= (+ pos_x0 3) pos_x9) (<= (+ pos_y0 3) pos_y9) (>= (- pos_x0 4) pos_x9) (>= (- pos_y0 14) pos_y9)))
(assert (or (<= (+ pos_x0 3) pos_x10) (<= (+ pos_y0 3) pos_y10) (>= (- pos_x0 7) pos_x10) (>= (- pos_y0 3) pos_y10)))
(assert (or (<= (+ pos_x0 3) pos_x11) (<= (+ pos_y0 3) pos_y11) (>= (- pos_x0 7) pos_x11) (>= (- pos_y0 6) pos_y11)))
(assert (or (<= (+ pos_x1 3) pos_x2) (<= (+ pos_y1 4) pos_y2) (>= (- pos_x1 3) pos_x2) (>= (- pos_y1 5) pos_y2)))
(assert (or (<= (+ pos_x1 3) pos_x3) (<= (+ pos_y1 4) pos_y3) (>= (- pos_x1 3) pos_x3) (>= (- pos_y1 6) pos_y3)))
(assert (or (<= (+ pos_x1 3) pos_x4) (<= (+ pos_y1 4) pos_y4) (>= (- pos_x1 3) pos_x4) (>= (- pos_y1 7) pos_y4)))
(assert (or (<= (+ pos_x1 3) pos_x5) (<= (+ pos_y1 4) pos_y5) (>= (- pos_x1 3) pos_x5) (>= (- pos_y1 8) pos_y5)))
(assert (or (<= (+ pos_x1 3) pos_x6) (<= (+ pos_y1 4) pos_y6) (>= (- pos_x1 3) pos_x6) (>= (- pos_y1 9) pos_y6)))
(assert (or (<= (+ pos_x1 3) pos_x7) (<= (+ pos_y1 4) pos_y7) (>= (- pos_x1 4) pos_x7) (>= (- pos_y1 3) pos_y7)))
(assert (or (<= (+ pos_x1 3) pos_x8) (<= (+ pos_y1 4) pos_y8) (>= (- pos_x1 4) pos_x8) (>= (- pos_y1 8) pos_y8)))
(assert (or (<= (+ pos_x1 3) pos_x9) (<= (+ pos_y1 4) pos_y9) (>= (- pos_x1 4) pos_x9) (>= (- pos_y1 14) pos_y9)))
(assert (or (<= (+ pos_x1 3) pos_x10) (<= (+ pos_y1 4) pos_y10) (>= (- pos_x1 7) pos_x10) (>= (- pos_y1 3) pos_y10)))
(assert (or (<= (+ pos_x1 3) pos_x11) (<= (+ pos_y1 4) pos_y11) (>= (- pos_x1 7) pos_x11) (>= (- pos_y1 6) pos_y11)))
(assert (or (<= (+ pos_x2 3) pos_x3) (<= (+ pos_y2 5) pos_y3) (>= (- pos_x2 3) pos_x3) (>= (- pos_y2 6) pos_y3)))
(assert (or (<= (+ pos_x2 3) pos_x4) (<= (+ pos_y2 5) pos_y4) (>= (- pos_x2 3) pos_x4) (>= (- pos_y2 7) pos_y4)))
(assert (or (<= (+ pos_x2 3) pos_x5) (<= (+ pos_y2 5) pos_y5) (>= (- pos_x2 3) pos_x5) (>= (- pos_y2 8) pos_y5)))
(assert (or (<= (+ pos_x2 3) pos_x6) (<= (+ pos_y2 5) pos_y6) (>= (- pos_x2 3) pos_x6) (>= (- pos_y2 9) pos_y6)))
(assert (or (<= (+ pos_x2 3) pos_x7) (<= (+ pos_y2 5) pos_y7) (>= (- pos_x2 4) pos_x7) (>= (- pos_y2 3) pos_y7)))
(assert (or (<= (+ pos_x2 3) pos_x8) (<= (+ pos_y2 5) pos_y8) (>= (- pos_x2 4) pos_x8) (>= (- pos_y2 8) pos_y8)))
(assert (or (<= (+ pos_x2 3) pos_x9) (<= (+ pos_y2 5) pos_y9) (>= (- pos_x2 4) pos_x9) (>= (- pos_y2 14) pos_y9)))
(assert (or (<= (+ pos_x2 3) pos_x10) (<= (+ pos_y2 5) pos_y10) (>= (- pos_x2 7) pos_x10) (>= (- pos_y2 3) pos_y10)))
(assert (or (<= (+ pos_x2 3) pos_x11) (<= (+ pos_y2 5) pos_y11) (>= (- pos_x2 7) pos_x11) (>= (- pos_y2 6) pos_y11)))
(assert (or (<= (+ pos_x3 3) pos_x4) (<= (+ pos_y3 6) pos_y4) (>= (- pos_x3 3) pos_x4) (>= (- pos_y3 7) pos_y4)))
(assert (or (<= (+ pos_x3 3) pos_x5) (<= (+ pos_y3 6) pos_y5) (>= (- pos_x3 3) pos_x5) (>= (- pos_y3 8) pos_y5)))
(assert (or (<= (+ pos_x3 3) pos_x6) (<= (+ pos_y3 6) pos_y6) (>= (- pos_x3 3) pos_x6) (>= (- pos_y3 9) pos_y6)))
(assert (or (<= (+ pos_x3 3) pos_x7) (<= (+ pos_y3 6) pos_y7) (>= (- pos_x3 4) pos_x7) (>= (- pos_y3 3) pos_y7)))
(assert (or (<= (+ pos_x3 3) pos_x8) (<= (+ pos_y3 6) pos_y8) (>= (- pos_x3 4) pos_x8) (>= (- pos_y3 8) pos_y8)))
(assert (or (<= (+ pos_x3 3) pos_x9) (<= (+ pos_y3 6) pos_y9) (>= (- pos_x3 4) pos_x9) (>= (- pos_y3 14) pos_y9)))
(assert (or (<= (+ pos_x3 3) pos_x10) (<= (+ pos_y3 6) pos_y10) (>= (- pos_x3 7) pos_x10) (>= (- pos_y3 3) pos_y10)))
(assert (or (<= (+ pos_x3 3) pos_x11) (<= (+ pos_y3 6) pos_y11) (>= (- pos_x3 7) pos_x11) (>= (- pos_y3 6) pos_y11)))
(assert (or (<= (+ pos_x4 3) pos_x5) (<= (+ pos_y4 7) pos_y5) (>= (- pos_x4 3) pos_x5) (>= (- pos_y4 8) pos_y5)))
(assert (or (<= (+ pos_x4 3) pos_x6) (<= (+ pos_y4 7) pos_y6) (>= (- pos_x4 3) pos_x6) (>= (- pos_y4 9) pos_y6)))
(assert (or (<= (+ pos_x4 3) pos_x7) (<= (+ pos_y4 7) pos_y7) (>= (- pos_x4 4) pos_x7) (>= (- pos_y4 3) pos_y7)))
(assert (or (<= (+ pos_x4 3) pos_x8) (<= (+ pos_y4 7) pos_y8) (>= (- pos_x4 4) pos_x8) (>= (- pos_y4 8) pos_y8)))
(assert (or (<= (+ pos_x4 3) pos_x9) (<= (+ pos_y4 7) pos_y9) (>= (- pos_x4 4) pos_x9) (>= (- pos_y4 14) pos_y9)))
(assert (or (<= (+ pos_x4 3) pos_x10) (<= (+ pos_y4 7) pos_y10) (>= (- pos_x4 7) pos_x10) (>= (- pos_y4 3) pos_y10)))
(assert (or (<= (+ pos_x4 3) pos_x11) (<= (+ pos_y4 7) pos_y11) (>= (- pos_x4 7) pos_x11) (>= (- pos_y4 6) pos_y11)))
(assert (or (<= (+ pos_x5 3) pos_x6) (<= (+ pos_y5 8) pos_y6) (>= (- pos_x5 3) pos_x6) (>= (- pos_y5 9) pos_y6)))
(assert (or (<= (+ pos_x5 3) pos_x7) (<= (+ pos_y5 8) pos_y7) (>= (- pos_x5 4) pos_x7) (>= (- pos_y5 3) pos_y7)))
(assert (or (<= (+ pos_x5 3) pos_x8) (<= (+ pos_y5 8) pos_y8) (>= (- pos_x5 4) pos_x8) (>= (- pos_y5 8) pos_y8)))
(assert (or (<= (+ pos_x5 3) pos_x9) (<= (+ pos_y5 8) pos_y9) (>= (- pos_x5 4) pos_x9) (>= (- pos_y5 14) pos_y9)))
(assert (or (<= (+ pos_x5 3) pos_x10) (<= (+ pos_y5 8) pos_y10) (>= (- pos_x5 7) pos_x10) (>= (- pos_y5 3) pos_y10)))
(assert (or (<= (+ pos_x5 3) pos_x11) (<= (+ pos_y5 8) pos_y11) (>= (- pos_x5 7) pos_x11) (>= (- pos_y5 6) pos_y11)))
(assert (or (<= (+ pos_x6 3) pos_x7) (<= (+ pos_y6 9) pos_y7) (>= (- pos_x6 4) pos_x7) (>= (- pos_y6 3) pos_y7)))
(assert (or (<= (+ pos_x6 3) pos_x8) (<= (+ pos_y6 9) pos_y8) (>= (- pos_x6 4) pos_x8) (>= (- pos_y6 8) pos_y8)))
(assert (or (<= (+ pos_x6 3) pos_x9) (<= (+ pos_y6 9) pos_y9) (>= (- pos_x6 4) pos_x9) (>= (- pos_y6 14) pos_y9)))
(assert (or (<= (+ pos_x6 3) pos_x10) (<= (+ pos_y6 9) pos_y10) (>= (- pos_x6 7) pos_x10) (>= (- pos_y6 3) pos_y10)))
(assert (or (<= (+ pos_x6 3) pos_x11) (<= (+ pos_y6 9) pos_y11) (>= (- pos_x6 7) pos_x11) (>= (- pos_y6 6) pos_y11)))
(assert (or (<= (+ pos_x7 4) pos_x8) (<= (+ pos_y7 3) pos_y8) (>= (- pos_x7 4) pos_x8) (>= (- pos_y7 8) pos_y8)))
(assert (or (<= (+ pos_x7 4) pos_x9) (<= (+ pos_y7 3) pos_y9) (>= (- pos_x7 4) pos_x9) (>= (- pos_y7 14) pos_y9)))
(assert (or (<= (+ pos_x7 4) pos_x10) (<= (+ pos_y7 3) pos_y10) (>= (- pos_x7 7) pos_x10) (>= (- pos_y7 3) pos_y10)))
(assert (or (<= (+ pos_x7 4) pos_x11) (<= (+ pos_y7 3) pos_y11) (>= (- pos_x7 7) pos_x11) (>= (- pos_y7 6) pos_y11)))
(assert (or (<= (+ pos_x8 4) pos_x9) (<= (+ pos_y8 8) pos_y9) (>= (- pos_x8 4) pos_x9) (>= (- pos_y8 14) pos_y9)))
(assert (or (<= (+ pos_x8 4) pos_x10) (<= (+ pos_y8 8) pos_y10) (>= (- pos_x8 7) pos_x10) (>= (- pos_y8 3) pos_y10)))
(assert (or (<= (+ pos_x8 4) pos_x11) (<= (+ pos_y8 8) pos_y11) (>= (- pos_x8 7) pos_x11) (>= (- pos_y8 6) pos_y11)))
(assert (or (<= (+ pos_x9 4) pos_x10) (<= (+ pos_y9 14) pos_y10) (>= (- pos_x9 7) pos_x10) (>= (- pos_y9 3) pos_y10)))
(assert (or (<= (+ pos_x9 4) pos_x11) (<= (+ pos_y9 14) pos_y11) (>= (- pos_x9 7) pos_x11) (>= (- pos_y9 6) pos_y11)))
(assert (or (<= (+ pos_x10 7) pos_x11) (<= (+ pos_y10 3) pos_y11) (>= (- pos_x10 7) pos_x11) (>= (- pos_y10 6) pos_y11)))
(assert (and (<= (+ pos_x0 3) 17) (<= (+ pos_y0 3) l)))
(assert (and (<= (+ pos_x1 3) 17) (<= (+ pos_y1 4) l)))
(assert (and (<= (+ pos_x2 3) 17) (<= (+ pos_y2 5) l)))
(assert (and (<= (+ pos_x3 3) 17) (<= (+ pos_y3 6) l)))
(assert (and (<= (+ pos_x4 3) 17) (<= (+ pos_y4 7) l)))
(assert (and (<= (+ pos_x5 3) 17) (<= (+ pos_y5 8) l)))
(assert (and (<= (+ pos_x6 3) 17) (<= (+ pos_y6 9) l)))
(assert (and (<= (+ pos_x7 4) 17) (<= (+ pos_y7 3) l)))
(assert (and (<= (+ pos_x8 4) 17) (<= (+ pos_y8 8) l)))
(assert (and (<= (+ pos_x9 4) 17) (<= (+ pos_y9 14) l)))
(assert (and (<= (+ pos_x10 7) 17) (<= (+ pos_y10 3) l)))
(assert (and (<= (+ pos_x11 7) 17) (<= (+ pos_y11 6) l)))
(assert (<= (+ (ite (and (<= pos_y0 3) (< 3 (+ pos_y0 3))) 3 0) (ite (and (<= pos_y1 3) (< 3 (+ pos_y1 4))) 3 0) (ite (and (<= pos_y2 3) (< 3 (+ pos_y2 5))) 3 0) (ite (and (<= pos_y3 3) (< 3 (+ pos_y3 6))) 3 0) (ite (and (<= pos_y4 3) (< 3 (+ pos_y4 7))) 3 0) (ite (and (<= pos_y5 3) (< 3 (+ pos_y5 8))) 3 0) (ite (and (<= pos_y6 3) (< 3 (+ pos_y6 9))) 3 0) (ite (and (<= pos_y7 3) (< 3 (+ pos_y7 3))) 4 0) (ite (and (<= pos_y8 3) (< 3 (+ pos_y8 8))) 4 0) (ite (and (<= pos_y9 3) (< 3 (+ pos_y9 14))) 4 0) (ite (and (<= pos_y10 3) (< 3 (+ pos_y10 3))) 7 0) (ite (and (<= pos_y11 3) (< 3 (+ pos_y11 6))) 7 0)) 17))
(assert (<= (+ (ite (and (<= pos_y0 3) (< 3 (+ pos_y0 3))) 3 0) (ite (and (<= pos_y1 3) (< 3 (+ pos_y1 4))) 3 0) (ite (and (<= pos_y2 3) (< 3 (+ pos_y2 5))) 3 0) (ite (and (<= pos_y3 3) (< 3 (+ pos_y3 6))) 3 0) (ite (and (<= pos_y4 3) (< 3 (+ pos_y4 7))) 3 0) (ite (and (<= pos_y5 3) (< 3 (+ pos_y5 8))) 3 0) (ite (and (<= pos_y6 3) (< 3 (+ pos_y6 9))) 3 0) (ite (and (<= pos_y7 3) (< 3 (+ pos_y7 3))) 4 0) (ite (and (<= pos_y8 3) (< 3 (+ pos_y8 8))) 4 0) (ite (and (<= pos_y9 3) (< 3 (+ pos_y9 14))) 4 0) (ite (and (<= pos_y10 3) (< 3 (+ pos_y10 3))) 7 0) (ite (and (<= pos_y11 3) (< 3 (+ pos_y11 6))) 7 0)) 17))
(assert (<= (+ (ite (and (<= pos_y0 3) (< 3 (+ pos_y0 3))) 3 0) (ite (and (<= pos_y1 3) (< 3 (+ pos_y1 4))) 3 0) (ite (and (<= pos_y2 3) (< 3 (+ pos_y2 5))) 3 0) (ite (and (<= pos_y3 3) (< 3 (+ pos_y3 6))) 3 0) (ite (and (<= pos_y4 3) (< 3 (+ pos_y4 7))) 3 0) (ite (and (<= pos_y5 3) (< 3 (+ pos_y5 8))) 3 0) (ite (and (<= pos_y6 3) (< 3 (+ pos_y6 9))) 3 0) (ite (and (<= pos_y7 3) (< 3 (+ pos_y7 3))) 4 0) (ite (and (<= pos_y8 3) (< 3 (+ pos_y8 8))) 4 0) (ite (and (<= pos_y9 3) (< 3 (+ pos_y9 14))) 4 0) (ite (and (<= pos_y10 3) (< 3 (+ pos_y10 3))) 7 0) (ite (and (<= pos_y11 3) (< 3 (+ pos_y11 6))) 7 0)) 17))
(assert (<= (+ (ite (and (<= pos_y0 3) (< 3 (+ pos_y0 3))) 3 0) (ite (and (<= pos_y1 3) (< 3 (+ pos_y1 4))) 3 0) (ite (and (<= pos_y2 3) (< 3 (+ pos_y2 5))) 3 0) (ite (and (<= pos_y3 3) (< 3 (+ pos_y3 6))) 3 0) (ite (and (<= pos_y4 3) (< 3 (+ pos_y4 7))) 3 0) (ite (and (<= pos_y5 3) (< 3 (+ pos_y5 8))) 3 0) (ite (and (<= pos_y6 3) (< 3 (+ pos_y6 9))) 3 0) (ite (and (<= pos_y7 3) (< 3 (+ pos_y7 3))) 4 0) (ite (and (<= pos_y8 3) (< 3 (+ pos_y8 8))) 4 0) (ite (and (<= pos_y9 3) (< 3 (+ pos_y9 14))) 4 0) (ite (and (<= pos_y10 3) (< 3 (+ pos_y10 3))) 7 0) (ite (and (<= pos_y11 3) (< 3 (+ pos_y11 6))) 7 0)) 17))
(assert (<= (+ (ite (and (<= pos_y0 3) (< 3 (+ pos_y0 3))) 3 0) (ite (and (<= pos_y1 3) (< 3 (+ pos_y1 4))) 3 0) (ite (and (<= pos_y2 3) (< 3 (+ pos_y2 5))) 3 0) (ite (and (<= pos_y3 3) (< 3 (+ pos_y3 6))) 3 0) (ite (and (<= pos_y4 3) (< 3 (+ pos_y4 7))) 3 0) (ite (and (<= pos_y5 3) (< 3 (+ pos_y5 8))) 3 0) (ite (and (<= pos_y6 3) (< 3 (+ pos_y6 9))) 3 0) (ite (and (<= pos_y7 3) (< 3 (+ pos_y7 3))) 4 0) (ite (and (<= pos_y8 3) (< 3 (+ pos_y8 8))) 4 0) (ite (and (<= pos_y9 3) (< 3 (+ pos_y9 14))) 4 0) (ite (and (<= pos_y10 3) (< 3 (+ pos_y10 3))) 7 0) (ite (and (<= pos_y11 3) (< 3 (+ pos_y11 6))) 7 0)) 17))
(assert (<= (+ (ite (and (<= pos_y0 3) (< 3 (+ pos_y0 3))) 3 0) (ite (and (<= pos_y1 3) (< 3 (+ pos_y1 4))) 3 0) (ite (and (<= pos_y2 3) (< 3 (+ pos_y2 5))) 3 0) (ite (and (<= pos_y3 3) (< 3 (+ pos_y3 6))) 3 0) (ite (and (<= pos_y4 3) (< 3 (+ pos_y4 7))) 3 0) (ite (and (<= pos_y5 3) (< 3 (+ pos_y5 8))) 3 0) (ite (and (<= pos_y6 3) (< 3 (+ pos_y6 9))) 3 0) (ite (and (<= pos_y7 3) (< 3 (+ pos_y7 3))) 4 0) (ite (and (<= pos_y8 3) (< 3 (+ pos_y8 8))) 4 0) (ite (and (<= pos_y9 3) (< 3 (+ pos_y9 14))) 4 0) (ite (and (<= pos_y10 3) (< 3 (+ pos_y10 3))) 7 0) (ite (and (<= pos_y11 3) (< 3 (+ pos_y11 6))) 7 0)) 17))
(assert (<= (+ (ite (and (<= pos_y0 3) (< 3 (+ pos_y0 3))) 3 0) (ite (and (<= pos_y1 3) (< 3 (+ pos_y1 4))) 3 0) (ite (and (<= pos_y2 3) (< 3 (+ pos_y2 5))) 3 0) (ite (and (<= pos_y3 3) (< 3 (+ pos_y3 6))) 3 0) (ite (and (<= pos_y4 3) (< 3 (+ pos_y4 7))) 3 0) (ite (and (<= pos_y5 3) (< 3 (+ pos_y5 8))) 3 0) (ite (and (<= pos_y6 3) (< 3 (+ pos_y6 9))) 3 0) (ite (and (<= pos_y7 3) (< 3 (+ pos_y7 3))) 4 0) (ite (and (<= pos_y8 3) (< 3 (+ pos_y8 8))) 4 0) (ite (and (<= pos_y9 3) (< 3 (+ pos_y9 14))) 4 0) (ite (and (<= pos_y10 3) (< 3 (+ pos_y10 3))) 7 0) (ite (and (<= pos_y11 3) (< 3 (+ pos_y11 6))) 7 0)) 17))
(assert (<= (+ (ite (and (<= pos_y0 4) (< 4 (+ pos_y0 3))) 3 0) (ite (and (<= pos_y1 4) (< 4 (+ pos_y1 4))) 3 0) (ite (and (<= pos_y2 4) (< 4 (+ pos_y2 5))) 3 0) (ite (and (<= pos_y3 4) (< 4 (+ pos_y3 6))) 3 0) (ite (and (<= pos_y4 4) (< 4 (+ pos_y4 7))) 3 0) (ite (and (<= pos_y5 4) (< 4 (+ pos_y5 8))) 3 0) (ite (and (<= pos_y6 4) (< 4 (+ pos_y6 9))) 3 0) (ite (and (<= pos_y7 4) (< 4 (+ pos_y7 3))) 4 0) (ite (and (<= pos_y8 4) (< 4 (+ pos_y8 8))) 4 0) (ite (and (<= pos_y9 4) (< 4 (+ pos_y9 14))) 4 0) (ite (and (<= pos_y10 4) (< 4 (+ pos_y10 3))) 7 0) (ite (and (<= pos_y11 4) (< 4 (+ pos_y11 6))) 7 0)) 17))
(assert (<= (+ (ite (and (<= pos_y0 4) (< 4 (+ pos_y0 3))) 3 0) (ite (and (<= pos_y1 4) (< 4 (+ pos_y1 4))) 3 0) (ite (and (<= pos_y2 4) (< 4 (+ pos_y2 5))) 3 0) (ite (and (<= pos_y3 4) (< 4 (+ pos_y3 6))) 3 0) (ite (and (<= pos_y4 4) (< 4 (+ pos_y4 7))) 3 0) (ite (and (<= pos_y5 4) (< 4 (+ pos_y5 8))) 3 0) (ite (and (<= pos_y6 4) (< 4 (+ pos_y6 9))) 3 0) (ite (and (<= pos_y7 4) (< 4 (+ pos_y7 3))) 4 0) (ite (and (<= pos_y8 4) (< 4 (+ pos_y8 8))) 4 0) (ite (and (<= pos_y9 4) (< 4 (+ pos_y9 14))) 4 0) (ite (and (<= pos_y10 4) (< 4 (+ pos_y10 3))) 7 0) (ite (and (<= pos_y11 4) (< 4 (+ pos_y11 6))) 7 0)) 17))
(assert (<= (+ (ite (and (<= pos_y0 4) (< 4 (+ pos_y0 3))) 3 0) (ite (and (<= pos_y1 4) (< 4 (+ pos_y1 4))) 3 0) (ite (and (<= pos_y2 4) (< 4 (+ pos_y2 5))) 3 0) (ite (and (<= pos_y3 4) (< 4 (+ pos_y3 6))) 3 0) (ite (and (<= pos_y4 4) (< 4 (+ pos_y4 7))) 3 0) (ite (and (<= pos_y5 4) (< 4 (+ pos_y5 8))) 3 0) (ite (and (<= pos_y6 4) (< 4 (+ pos_y6 9))) 3 0) (ite (and (<= pos_y7 4) (< 4 (+ pos_y7 3))) 4 0) (ite (and (<= pos_y8 4) (< 4 (+ pos_y8 8))) 4 0) (ite (and (<= pos_y9 4) (< 4 (+ pos_y9 14))) 4 0) (ite (and (<= pos_y10 4) (< 4 (+ pos_y10 3))) 7 0) (ite (and (<= pos_y11 4) (< 4 (+ pos_y11 6))) 7 0)) 17))
(assert (<= (+ (ite (and (<= pos_y0 7) (< 7 (+ pos_y0 3))) 3 0) (ite (and (<= pos_y1 7) (< 7 (+ pos_y1 4))) 3 0) (ite (and (<= pos_y2 7) (< 7 (+ pos_y2 5))) 3 0) (ite (and (<= pos_y3 7) (< 7 (+ pos_y3 6))) 3 0) (ite (and (<= pos_y4 7) (< 7 (+ pos_y4 7))) 3 0) (ite (and (<= pos_y5 7) (< 7 (+ pos_y5 8))) 3 0) (ite (and (<= pos_y6 7) (< 7 (+ pos_y6 9))) 3 0) (ite (and (<= pos_y7 7) (< 7 (+ pos_y7 3))) 4 0) (ite (and (<= pos_y8 7) (< 7 (+ pos_y8 8))) 4 0) (ite (and (<= pos_y9 7) (< 7 (+ pos_y9 14))) 4 0) (ite (and (<= pos_y10 7) (< 7 (+ pos_y10 3))) 7 0) (ite (and (<= pos_y11 7) (< 7 (+ pos_y11 6))) 7 0)) 17))
(assert (<= (+ (ite (and (<= pos_y0 7) (< 7 (+ pos_y0 3))) 3 0) (ite (and (<= pos_y1 7) (< 7 (+ pos_y1 4))) 3 0) (ite (and (<= pos_y2 7) (< 7 (+ pos_y2 5))) 3 0) (ite (and (<= pos_y3 7) (< 7 (+ pos_y3 6))) 3 0) (ite (and (<= pos_y4 7) (< 7 (+ pos_y4 7))) 3 0) (ite (and (<= pos_y5 7) (< 7 (+ pos_y5 8))) 3 0) (ite (and (<= pos_y6 7) (< 7 (+ pos_y6 9))) 3 0) (ite (and (<= pos_y7 7) (< 7 (+ pos_y7 3))) 4 0) (ite (and (<= pos_y8 7) (< 7 (+ pos_y8 8))) 4 0) (ite (and (<= pos_y9 7) (< 7 (+ pos_y9 14))) 4 0) (ite (and (<= pos_y10 7) (< 7 (+ pos_y10 3))) 7 0) (ite (and (<= pos_y11 7) (< 7 (+ pos_y11 6))) 7 0)) 17))
(assert (<= (+ (ite (and (<= pos_x0 3) (< 3 (+ pos_x0 3))) 3 0) (ite (and (<= pos_x1 3) (< 3 (+ pos_x1 3))) 4 0) (ite (and (<= pos_x2 3) (< 3 (+ pos_x2 3))) 5 0) (ite (and (<= pos_x3 3) (< 3 (+ pos_x3 3))) 6 0) (ite (and (<= pos_x4 3) (< 3 (+ pos_x4 3))) 7 0) (ite (and (<= pos_x5 3) (< 3 (+ pos_x5 3))) 8 0) (ite (and (<= pos_x6 3) (< 3 (+ pos_x6 3))) 9 0) (ite (and (<= pos_x7 3) (< 3 (+ pos_x7 4))) 3 0) (ite (and (<= pos_x8 3) (< 3 (+ pos_x8 4))) 8 0) (ite (and (<= pos_x9 3) (< 3 (+ pos_x9 4))) 14 0) (ite (and (<= pos_x10 3) (< 3 (+ pos_x10 7))) 3 0) (ite (and (<= pos_x11 3) (< 3 (+ pos_x11 7))) 6 0)) l))
(assert (<= (+ (ite (and (<= pos_x0 4) (< 4 (+ pos_x0 3))) 3 0) (ite (and (<= pos_x1 4) (< 4 (+ pos_x1 3))) 4 0) (ite (and (<= pos_x2 4) (< 4 (+ pos_x2 3))) 5 0) (ite (and (<= pos_x3 4) (< 4 (+ pos_x3 3))) 6 0) (ite (and (<= pos_x4 4) (< 4 (+ pos_x4 3))) 7 0) (ite (and (<= pos_x5 4) (< 4 (+ pos_x5 3))) 8 0) (ite (and (<= pos_x6 4) (< 4 (+ pos_x6 3))) 9 0) (ite (and (<= pos_x7 4) (< 4 (+ pos_x7 4))) 3 0) (ite (and (<= pos_x8 4) (< 4 (+ pos_x8 4))) 8 0) (ite (and (<= pos_x9 4) (< 4 (+ pos_x9 4))) 14 0) (ite (and (<= pos_x10 4) (< 4 (+ pos_x10 7))) 3 0) (ite (and (<= pos_x11 4) (< 4 (+ pos_x11 7))) 6 0)) l))
(assert (<= (+ (ite (and (<= pos_x0 5) (< 5 (+ pos_x0 3))) 3 0) (ite (and (<= pos_x1 5) (< 5 (+ pos_x1 3))) 4 0) (ite (and (<= pos_x2 5) (< 5 (+ pos_x2 3))) 5 0) (ite (and (<= pos_x3 5) (< 5 (+ pos_x3 3))) 6 0) (ite (and (<= pos_x4 5) (< 5 (+ pos_x4 3))) 7 0) (ite (and (<= pos_x5 5) (< 5 (+ pos_x5 3))) 8 0) (ite (and (<= pos_x6 5) (< 5 (+ pos_x6 3))) 9 0) (ite (and (<= pos_x7 5) (< 5 (+ pos_x7 4))) 3 0) (ite (and (<= pos_x8 5) (< 5 (+ pos_x8 4))) 8 0) (ite (and (<= pos_x9 5) (< 5 (+ pos_x9 4))) 14 0) (ite (and (<= pos_x10 5) (< 5 (+ pos_x10 7))) 3 0) (ite (and (<= pos_x11 5) (< 5 (+ pos_x11 7))) 6 0)) l))
(assert (<= (+ (ite (and (<= pos_x0 6) (< 6 (+ pos_x0 3))) 3 0) (ite (and (<= pos_x1 6) (< 6 (+ pos_x1 3))) 4 0) (ite (and (<= pos_x2 6) (< 6 (+ pos_x2 3))) 5 0) (ite (and (<= pos_x3 6) (< 6 (+ pos_x3 3))) 6 0) (ite (and (<= pos_x4 6) (< 6 (+ pos_x4 3))) 7 0) (ite (and (<= pos_x5 6) (< 6 (+ pos_x5 3))) 8 0) (ite (and (<= pos_x6 6) (< 6 (+ pos_x6 3))) 9 0) (ite (and (<= pos_x7 6) (< 6 (+ pos_x7 4))) 3 0) (ite (and (<= pos_x8 6) (< 6 (+ pos_x8 4))) 8 0) (ite (and (<= pos_x9 6) (< 6 (+ pos_x9 4))) 14 0) (ite (and (<= pos_x10 6) (< 6 (+ pos_x10 7))) 3 0) (ite (and (<= pos_x11 6) (< 6 (+ pos_x11 7))) 6 0)) l))
(assert (<= (+ (ite (and (<= pos_x0 7) (< 7 (+ pos_x0 3))) 3 0) (ite (and (<= pos_x1 7) (< 7 (+ pos_x1 3))) 4 0) (ite (and (<= pos_x2 7) (< 7 (+ pos_x2 3))) 5 0) (ite (and (<= pos_x3 7) (< 7 (+ pos_x3 3))) 6 0) (ite (and (<= pos_x4 7) (< 7 (+ pos_x4 3))) 7 0) (ite (and (<= pos_x5 7) (< 7 (+ pos_x5 3))) 8 0) (ite (and (<= pos_x6 7) (< 7 (+ pos_x6 3))) 9 0) (ite (and (<= pos_x7 7) (< 7 (+ pos_x7 4))) 3 0) (ite (and (<= pos_x8 7) (< 7 (+ pos_x8 4))) 8 0) (ite (and (<= pos_x9 7) (< 7 (+ pos_x9 4))) 14 0) (ite (and (<= pos_x10 7) (< 7 (+ pos_x10 7))) 3 0) (ite (and (<= pos_x11 7) (< 7 (+ pos_x11 7))) 6 0)) l))
(assert (<= (+ (ite (and (<= pos_x0 8) (< 8 (+ pos_x0 3))) 3 0) (ite (and (<= pos_x1 8) (< 8 (+ pos_x1 3))) 4 0) (ite (and (<= pos_x2 8) (< 8 (+ pos_x2 3))) 5 0) (ite (and (<= pos_x3 8) (< 8 (+ pos_x3 3))) 6 0) (ite (and (<= pos_x4 8) (< 8 (+ pos_x4 3))) 7 0) (ite (and (<= pos_x5 8) (< 8 (+ pos_x5 3))) 8 0) (ite (and (<= pos_x6 8) (< 8 (+ pos_x6 3))) 9 0) (ite (and (<= pos_x7 8) (< 8 (+ pos_x7 4))) 3 0) (ite (and (<= pos_x8 8) (< 8 (+ pos_x8 4))) 8 0) (ite (and (<= pos_x9 8) (< 8 (+ pos_x9 4))) 14 0) (ite (and (<= pos_x10 8) (< 8 (+ pos_x10 7))) 3 0) (ite (and (<= pos_x11 8) (< 8 (+ pos_x11 7))) 6 0)) l))
(assert (<= (+ (ite (and (<= pos_x0 9) (< 9 (+ pos_x0 3))) 3 0) (ite (and (<= pos_x1 9) (< 9 (+ pos_x1 3))) 4 0) (ite (and (<= pos_x2 9) (< 9 (+ pos_x2 3))) 5 0) (ite (and (<= pos_x3 9) (< 9 (+ pos_x3 3))) 6 0) (ite (and (<= pos_x4 9) (< 9 (+ pos_x4 3))) 7 0) (ite (and (<= pos_x5 9) (< 9 (+ pos_x5 3))) 8 0) (ite (and (<= pos_x6 9) (< 9 (+ pos_x6 3))) 9 0) (ite (and (<= pos_x7 9) (< 9 (+ pos_x7 4))) 3 0) (ite (and (<= pos_x8 9) (< 9 (+ pos_x8 4))) 8 0) (ite (and (<= pos_x9 9) (< 9 (+ pos_x9 4))) 14 0) (ite (and (<= pos_x10 9) (< 9 (+ pos_x10 7))) 3 0) (ite (and (<= pos_x11 9) (< 9 (+ pos_x11 7))) 6 0)) l))
(assert (<= (+ (ite (and (<= pos_x0 3) (< 3 (+ pos_x0 3))) 3 0) (ite (and (<= pos_x1 3) (< 3 (+ pos_x1 3))) 4 0) (ite (and (<= pos_x2 3) (< 3 (+ pos_x2 3))) 5 0) (ite (and (<= pos_x3 3) (< 3 (+ pos_x3 3))) 6 0) (ite (and (<= pos_x4 3) (< 3 (+ pos_x4 3))) 7 0) (ite (and (<= pos_x5 3) (< 3 (+ pos_x5 3))) 8 0) (ite (and (<= pos_x6 3) (< 3 (+ pos_x6 3))) 9 0) (ite (and (<= pos_x7 3) (< 3 (+ pos_x7 4))) 3 0) (ite (and (<= pos_x8 3) (< 3 (+ pos_x8 4))) 8 0) (ite (and (<= pos_x9 3) (< 3 (+ pos_x9 4))) 14 0) (ite (and (<= pos_x10 3) (< 3 (+ pos_x10 7))) 3 0) (ite (and (<= pos_x11 3) (< 3 (+ pos_x11 7))) 6 0)) l))
(assert (<= (+ (ite (and (<= pos_x0 8) (< 8 (+ pos_x0 3))) 3 0) (ite (and (<= pos_x1 8) (< 8 (+ pos_x1 3))) 4 0) (ite (and (<= pos_x2 8) (< 8 (+ pos_x2 3))) 5 0) (ite (and (<= pos_x3 8) (< 8 (+ pos_x3 3))) 6 0) (ite (and (<= pos_x4 8) (< 8 (+ pos_x4 3))) 7 0) (ite (and (<= pos_x5 8) (< 8 (+ pos_x5 3))) 8 0) (ite (and (<= pos_x6 8) (< 8 (+ pos_x6 3))) 9 0) (ite (and (<= pos_x7 8) (< 8 (+ pos_x7 4))) 3 0) (ite (and (<= pos_x8 8) (< 8 (+ pos_x8 4))) 8 0) (ite (and (<= pos_x9 8) (< 8 (+ pos_x9 4))) 14 0) (ite (and (<= pos_x10 8) (< 8 (+ pos_x10 7))) 3 0) (ite (and (<= pos_x11 8) (< 8 (+ pos_x11 7))) 6 0)) l))
(assert (<= (+ (ite (and (<= pos_x0 14) (< 14 (+ pos_x0 3))) 3 0) (ite (and (<= pos_x1 14) (< 14 (+ pos_x1 3))) 4 0) (ite (and (<= pos_x2 14) (< 14 (+ pos_x2 3))) 5 0) (ite (and (<= pos_x3 14) (< 14 (+ pos_x3 3))) 6 0) (ite (and (<= pos_x4 14) (< 14 (+ pos_x4 3))) 7 0) (ite (and (<= pos_x5 14) (< 14 (+ pos_x5 3))) 8 0) (ite (and (<= pos_x6 14) (< 14 (+ pos_x6 3))) 9 0) (ite (and (<= pos_x7 14) (< 14 (+ pos_x7 4))) 3 0) (ite (and (<= pos_x8 14) (< 14 (+ pos_x8 4))) 8 0) (ite (and (<= pos_x9 14) (< 14 (+ pos_x9 4))) 14 0) (ite (and (<= pos_x10 14) (< 14 (+ pos_x10 7))) 3 0) (ite (and (<= pos_x11 14) (< 14 (+ pos_x11 7))) 6 0)) l))
(assert (<= (+ (ite (and (<= pos_x0 3) (< 3 (+ pos_x0 3))) 3 0) (ite (and (<= pos_x1 3) (< 3 (+ pos_x1 3))) 4 0) (ite (and (<= pos_x2 3) (< 3 (+ pos_x2 3))) 5 0) (ite (and (<= pos_x3 3) (< 3 (+ pos_x3 3))) 6 0) (ite (and (<= pos_x4 3) (< 3 (+ pos_x4 3))) 7 0) (ite (and (<= pos_x5 3) (< 3 (+ pos_x5 3))) 8 0) (ite (and (<= pos_x6 3) (< 3 (+ pos_x6 3))) 9 0) (ite (and (<= pos_x7 3) (< 3 (+ pos_x7 4))) 3 0) (ite (and (<= pos_x8 3) (< 3 (+ pos_x8 4))) 8 0) (ite (and (<= pos_x9 3) (< 3 (+ pos_x9 4))) 14 0) (ite (and (<= pos_x10 3) (< 3 (+ pos_x10 7))) 3 0) (ite (and (<= pos_x11 3) (< 3 (+ pos_x11 7))) 6 0)) l))
(assert (<= (+ (ite (and (<= pos_x0 6) (< 6 (+ pos_x0 3))) 3 0) (ite (and (<= pos_x1 6) (< 6 (+ pos_x1 3))) 4 0) (ite (and (<= pos_x2 6) (< 6 (+ pos_x2 3))) 5 0) (ite (and (<= pos_x3 6) (< 6 (+ pos_x3 3))) 6 0) (ite (and (<= pos_x4 6) (< 6 (+ pos_x4 3))) 7 0) (ite (and (<= pos_x5 6) (< 6 (+ pos_x5 3))) 8 0) (ite (and (<= pos_x6 6) (< 6 (+ pos_x6 3))) 9 0) (ite (and (<= pos_x7 6) (< 6 (+ pos_x7 4))) 3 0) (ite (and (<= pos_x8 6) (< 6 (+ pos_x8 4))) 8 0) (ite (and (<= pos_x9 6) (< 6 (+ pos_x9 4))) 14 0) (ite (and (<= pos_x10 6) (< 6 (+ pos_x10 7))) 3 0) (ite (and (<= pos_x11 6) (< 6 (+ pos_x11 7))) 6 0)) l))
(assert (ite (and (= 3 3) (= 3 4)) (and (<= pos_x0 pos_x1) (<= pos_y0 pos_y1)) true))
(assert (ite (and (= 3 3) (= 3 5)) (and (<= pos_x0 pos_x2) (<= pos_y0 pos_y2)) true))
(assert (ite (and (= 3 3) (= 3 6)) (and (<= pos_x0 pos_x3) (<= pos_y0 pos_y3)) true))
(assert (ite (and (= 3 3) (= 3 7)) (and (<= pos_x0 pos_x4) (<= pos_y0 pos_y4)) true))
(assert (ite (and (= 3 3) (= 3 8)) (and (<= pos_x0 pos_x5) (<= pos_y0 pos_y5)) true))
(assert (ite (and (= 3 3) (= 3 9)) (and (<= pos_x0 pos_x6) (<= pos_y0 pos_y6)) true))
(assert (ite (and (= 3 4) (= 3 3)) (and (<= pos_x0 pos_x7) (<= pos_y0 pos_y7)) true))
(assert (ite (and (= 3 4) (= 3 8)) (and (<= pos_x0 pos_x8) (<= pos_y0 pos_y8)) true))
(assert (ite (and (= 3 4) (= 3 14)) (and (<= pos_x0 pos_x9) (<= pos_y0 pos_y9)) true))
(assert (ite (and (= 3 7) (= 3 3)) (and (<= pos_x0 pos_x10) (<= pos_y0 pos_y10)) true))
(assert (ite (and (= 3 7) (= 3 6)) (and (<= pos_x0 pos_x11) (<= pos_y0 pos_y11)) true))
(assert (ite (and (= 3 3) (= 4 5)) (and (<= pos_x1 pos_x2) (<= pos_y1 pos_y2)) true))
(assert (ite (and (= 3 3) (= 4 6)) (and (<= pos_x1 pos_x3) (<= pos_y1 pos_y3)) true))
(assert (ite (and (= 3 3) (= 4 7)) (and (<= pos_x1 pos_x4) (<= pos_y1 pos_y4)) true))
(assert (ite (and (= 3 3) (= 4 8)) (and (<= pos_x1 pos_x5) (<= pos_y1 pos_y5)) true))
(assert (ite (and (= 3 3) (= 4 9)) (and (<= pos_x1 pos_x6) (<= pos_y1 pos_y6)) true))
(assert (ite (and (= 3 4) (= 4 3)) (and (<= pos_x1 pos_x7) (<= pos_y1 pos_y7)) true))
(assert (ite (and (= 3 4) (= 4 8)) (and (<= pos_x1 pos_x8) (<= pos_y1 pos_y8)) true))
(assert (ite (and (= 3 4) (= 4 14)) (and (<= pos_x1 pos_x9) (<= pos_y1 pos_y9)) true))
(assert (ite (and (= 3 7) (= 4 3)) (and (<= pos_x1 pos_x10) (<= pos_y1 pos_y10)) true))
(assert (ite (and (= 3 7) (= 4 6)) (and (<= pos_x1 pos_x11) (<= pos_y1 pos_y11)) true))
(assert (ite (and (= 3 3) (= 5 6)) (and (<= pos_x2 pos_x3) (<= pos_y2 pos_y3)) true))
(assert (ite (and (= 3 3) (= 5 7)) (and (<= pos_x2 pos_x4) (<= pos_y2 pos_y4)) true))
(assert (ite (and (= 3 3) (= 5 8)) (and (<= pos_x2 pos_x5) (<= pos_y2 pos_y5)) true))
(assert (ite (and (= 3 3) (= 5 9)) (and (<= pos_x2 pos_x6) (<= pos_y2 pos_y6)) true))
(assert (ite (and (= 3 4) (= 5 3)) (and (<= pos_x2 pos_x7) (<= pos_y2 pos_y7)) true))
(assert (ite (and (= 3 4) (= 5 8)) (and (<= pos_x2 pos_x8) (<= pos_y2 pos_y8)) true))
(assert (ite (and (= 3 4) (= 5 14)) (and (<= pos_x2 pos_x9) (<= pos_y2 pos_y9)) true))
(assert (ite (and (= 3 7) (= 5 3)) (and (<= pos_x2 pos_x10) (<= pos_y2 pos_y10)) true))
(assert (ite (and (= 3 7) (= 5 6)) (and (<= pos_x2 pos_x11) (<= pos_y2 pos_y11)) true))
(assert (ite (and (= 3 3) (= 6 7)) (and (<= pos_x3 pos_x4) (<= pos_y3 pos_y4)) true))
(assert (ite (and (= 3 3) (= 6 8)) (and (<= pos_x3 pos_x5) (<= pos_y3 pos_y5)) true))
(assert (ite (and (= 3 3) (= 6 9)) (and (<= pos_x3 pos_x6) (<= pos_y3 pos_y6)) true))
(assert (ite (and (= 3 4) (= 6 3)) (and (<= pos_x3 pos_x7) (<= pos_y3 pos_y7)) true))
(assert (ite (and (= 3 4) (= 6 8)) (and (<= pos_x3 pos_x8) (<= pos_y3 pos_y8)) true))
(assert (ite (and (= 3 4) (= 6 14)) (and (<= pos_x3 pos_x9) (<= pos_y3 pos_y9)) true))
(assert (ite (and (= 3 7) (= 6 3)) (and (<= pos_x3 pos_x10) (<= pos_y3 pos_y10)) true))
(assert (ite (and (= 3 7) (= 6 6)) (and (<= pos_x3 pos_x11) (<= pos_y3 pos_y11)) true))
(assert (ite (and (= 3 3) (= 7 8)) (and (<= pos_x4 pos_x5) (<= pos_y4 pos_y5)) true))
(assert (ite (and (= 3 3) (= 7 9)) (and (<= pos_x4 pos_x6) (<= pos_y4 pos_y6)) true))
(assert (ite (and (= 3 4) (= 7 3)) (and (<= pos_x4 pos_x7) (<= pos_y4 pos_y7)) true))
(assert (ite (and (= 3 4) (= 7 8)) (and (<= pos_x4 pos_x8) (<= pos_y4 pos_y8)) true))
(assert (ite (and (= 3 4) (= 7 14)) (and (<= pos_x4 pos_x9) (<= pos_y4 pos_y9)) true))
(assert (ite (and (= 3 7) (= 7 3)) (and (<= pos_x4 pos_x10) (<= pos_y4 pos_y10)) true))
(assert (ite (and (= 3 7) (= 7 6)) (and (<= pos_x4 pos_x11) (<= pos_y4 pos_y11)) true))
(assert (ite (and (= 3 3) (= 8 9)) (and (<= pos_x5 pos_x6) (<= pos_y5 pos_y6)) true))
(assert (ite (and (= 3 4) (= 8 3)) (and (<= pos_x5 pos_x7) (<= pos_y5 pos_y7)) true))
(assert (ite (and (= 3 4) (= 8 8)) (and (<= pos_x5 pos_x8) (<= pos_y5 pos_y8)) true))
(assert (ite (and (= 3 4) (= 8 14)) (and (<= pos_x5 pos_x9) (<= pos_y5 pos_y9)) true))
(assert (ite (and (= 3 7) (= 8 3)) (and (<= pos_x5 pos_x10) (<= pos_y5 pos_y10)) true))
(assert (ite (and (= 3 7) (= 8 6)) (and (<= pos_x5 pos_x11) (<= pos_y5 pos_y11)) true))
(assert (ite (and (= 3 4) (= 9 3)) (and (<= pos_x6 pos_x7) (<= pos_y6 pos_y7)) true))
(assert (ite (and (= 3 4) (= 9 8)) (and (<= pos_x6 pos_x8) (<= pos_y6 pos_y8)) true))
(assert (ite (and (= 3 4) (= 9 14)) (and (<= pos_x6 pos_x9) (<= pos_y6 pos_y9)) true))
(assert (ite (and (= 3 7) (= 9 3)) (and (<= pos_x6 pos_x10) (<= pos_y6 pos_y10)) true))
(assert (ite (and (= 3 7) (= 9 6)) (and (<= pos_x6 pos_x11) (<= pos_y6 pos_y11)) true))
(assert (ite (and (= 4 4) (= 3 8)) (and (<= pos_x7 pos_x8) (<= pos_y7 pos_y8)) true))
(assert (ite (and (= 4 4) (= 3 14)) (and (<= pos_x7 pos_x9) (<= pos_y7 pos_y9)) true))
(assert (ite (and (= 4 7) (= 3 3)) (and (<= pos_x7 pos_x10) (<= pos_y7 pos_y10)) true))
(assert (ite (and (= 4 7) (= 3 6)) (and (<= pos_x7 pos_x11) (<= pos_y7 pos_y11)) true))
(assert (ite (and (= 4 4) (= 8 14)) (and (<= pos_x8 pos_x9) (<= pos_y8 pos_y9)) true))
(assert (ite (and (= 4 7) (= 8 3)) (and (<= pos_x8 pos_x10) (<= pos_y8 pos_y10)) true))
(assert (ite (and (= 4 7) (= 8 6)) (and (<= pos_x8 pos_x11) (<= pos_y8 pos_y11)) true))
(assert (ite (and (= 4 7) (= 14 3)) (and (<= pos_x9 pos_x10) (<= pos_y9 pos_y10)) true))
(assert (ite (and (= 4 7) (= 14 6)) (and (<= pos_x9 pos_x11) (<= pos_y9 pos_y11)) true))
(assert (ite (and (= 7 7) (= 3 6)) (and (<= pos_x10 pos_x11) (<= pos_y10 pos_y11)) true))
(assert (= pos_x9 0))
(assert (= pos_y9 0))
(check-sat)
(get-value (pos_x0))
(get-value (pos_y0))
(get-value (pos_x1))
(get-value (pos_y1))
(get-value (pos_x2))
(get-value (pos_y2))
(get-value (pos_x3))
(get-value (pos_y3))
(get-value (pos_x4))
(get-value (pos_y4))
(get-value (pos_x5))
(get-value (pos_y5))
(get-value (pos_x6))
(get-value (pos_y6))
(get-value (pos_x7))
(get-value (pos_y7))
(get-value (pos_x8))
(get-value (pos_y8))
(get-value (pos_x9))
(get-value (pos_y9))
(get-value (pos_x10))
(get-value (pos_y10))
(get-value (pos_x11))
(get-value (pos_y11))
(get-value (l))
